provided_instances/project.6.dat
n = 13;


p =
  [
    [ 87	2	0	5	3	3	0	0	0	0	0	0	0	]
    [ 72	25	2	1	0	0	0	0	0	0	0	0	0	]
    [ 4	36	46	2	0	12	0	0	0	0	0	0	0	]
    [ 37	55	5	2	0	1	0	0	0	0	0	0	0	]
    [ 26	54	1	16	3	0	0	0	0	0	0	0	0	]
    [ 34	34	3	2	27	0	0	0	0	0	0	0	0	]
    [ 85	3	11	1	0	0	0	0	0	0	0	0	0	]
    [ 59	4	0	25	0	10	1	1	0	0	0	0	0	]
    [ 91	4	0	3	0	2	0	0	0	0	0	0	0	]
    [ 44	4	36	7	2	4	3	0	0	0	0	0	0	]
    [ 19	34	25	14	3	2	2	0	0	0	1	0	0	]
    [ 5	73	1	13	7	0	1	0	0	0	0	0	0	]
    [ 25	53	22	0	0	0	0	0	0	0	0	0	0	]
  ];

