instances/project.6.sol
OBJECTIVE: 269

Slot 1
5 white, 1 black
2 white, 13 black
8 white, 3 black
4 white, 12 black
10 white, 6 black
11 white, 7 black

Slot 2
3 white, 1 black
2 white, 10 black
5 white, 4 black
6 white, 13 black
9 white, 7 black
11 white, 8 black

Slot 3
1 white, 10 black
2 white, 9 black
7 white, 4 black
5 white, 13 black
8 white, 6 black
12 white, 11 black

Slot 4
1 white, 13 black
2 white, 11 black
5 white, 3 black
10 white, 4 black
7 white, 6 black
12 white, 9 black

Slot 5
7 white, 1 black
2 white, 12 black
3 white, 10 black
8 white, 4 black
9 white, 5 black
13 white, 11 black

Slot 6
6 white, 2 black
3 white, 13 black
9 white, 4 black
11 white, 5 black
12 white, 7 black
10 white, 8 black

Slot 7
6 white, 1 black
4 white, 2 black
3 white, 11 black
5 white, 12 black
8 white, 7 black
13 white, 9 black

Slot 8
2 white, 1 black
6 white, 3 black
4 white, 11 black
8 white, 5 black
10 white, 9 black
13 white, 12 black

Slot 9
1 white, 11 black
5 white, 2 black
3 white, 12 black
9 white, 6 black
10 white, 7 black
13 white, 8 black

Slot 10
4 white, 1 black
3 white, 2 black
11 white, 6 black
13 white, 7 black
9 white, 8 black
12 white, 10 black

Slot 11
1 white, 9 black
7 white, 2 black
4 white, 3 black
6 white, 5 black
12 white, 8 black
13 white, 10 black

Slot 12
1 white, 8 black
7 white, 3 black
4 white, 13 black
10 white, 5 black
12 white, 6 black
11 white, 9 black

Slot 13
1 white, 12 black
8 white, 2 black
9 white, 3 black
6 white, 4 black
7 white, 5 black
11 white, 10 black




